NAME = SAfile180,
TOURSIZE = 180,
LENGTH = 2340,
67,69,105,110,75,167,163,160,39,95,92,152,139,13,134,63,3,121,80,85,60,14,168,144,108,157,56,86,87,154,129,102,88,89,118,44,24,74,78,159,83,41,174,173,175,22,19,106,166,179,137,62,72,82,84,155,128,77,70,23,37,172,116,171,64,66,36,4,32,113,57,142,98,91,1,11,133,25,45,12,149,150,17,68,20,122,50,38,61,15,35,107,158,135,52,43,109,30,147,40,46,138,42,21,126,127,146,143,100,65,112,81,48,94,26,101,5,140,71,119,99,49,117,151,161,59,148,9,6,132,145,104,177,169,55,124,123,153,90,136,18,2,156,97,10,34,96,103,176,180,58,125,33,73,28,54,164,170,16,29,51,47,178,7,120,115,165,162,79,93,8,130,111,114,27,141,31,53,76,131